NAME          DCAP_2_4_3_500_SS272
ROWS
 N  OBJ
 L  CON1
 L  CON2
 L  CON3
 L  CON4
 L  CON5
 L  CON6
 L  CON7
 L  CON8
 L  CON9
 L  CON10
 L  CON11
 L  CON12
 E  CON13
 E  CON14
 E  CON15
 E  CON16
 E  CON17
 E  CON18
 E  CON19
 E  CON20
 E  CON21
 E  CON22
 E  CON23
 E  CON24
COLUMNS
    x[1,1]    OBJ       6.180167      CON1      1.000000    
    x[1,1]    CON7      -1.000000     CON8      -1.000000   
    x[1,1]    CON9      -1.000000   
    x[1,2]    OBJ       6.563535      CON2      1.000000    
    x[1,2]    CON8      -1.000000     CON9      -1.000000   
    x[1,3]    OBJ       7.443064      CON3      1.000000    
    x[1,3]    CON9      -1.000000   
    x[2,1]    OBJ       6.732585      CON4      1.000000    
    x[2,1]    CON10     -1.000000     CON11     -1.000000   
    x[2,1]    CON12     -1.000000   
    x[2,2]    OBJ       5.039546      CON5      1.000000    
    x[2,2]    CON11     -1.000000     CON12     -1.000000   
    x[2,3]    OBJ       6.054841      CON6      1.000000    
    x[2,3]    CON12     -1.000000   
    MARKER    'MARKER'                'INTORG'
    u[1,1]    OBJ       48.076654     CON1      -1.000000   
    u[1,2]    OBJ       20.066487     CON2      -1.000000   
    u[1,3]    OBJ       32.230043     CON3      -1.000000   
    u[2,1]    OBJ       49.996186     CON4      -1.000000   
    u[2,2]    OBJ       49.466655     CON5      -1.000000   
    u[2,3]    OBJ       27.484319     CON6      -1.000000   
    y[1,1,1]  OBJ       8.859013      CON7      1.082589    
    y[1,1,1]  CON13     1.000000    
    y[1,1,2]  OBJ       8.960209      CON8      1.216783    
    y[1,1,2]  CON14     1.000000    
    y[1,1,3]  OBJ       8.671893      CON9      1.145659    
    y[1,1,3]  CON15     1.000000    
    y[1,2,1]  OBJ       9.311494      CON7      1.154260    
    y[1,2,1]  CON16     1.000000    
    y[1,2,2]  OBJ       9.640141      CON8      0.548806    
    y[1,2,2]  CON17     1.000000    
    y[1,2,3]  OBJ       7.215977      CON9      0.812831    
    y[1,2,3]  CON18     1.000000    
    y[1,3,1]  OBJ       9.704339      CON7      1.330040    
    y[1,3,1]  CON19     1.000000    
    y[1,3,2]  OBJ       7.649025      CON8      1.126191    
    y[1,3,2]  CON20     1.000000    
    y[1,3,3]  OBJ       6.182935      CON9      0.794518    
    y[1,3,3]  CON21     1.000000    
    y[1,4,1]  OBJ       8.668525      CON7      0.597158    
    y[1,4,1]  CON22     1.000000    
    y[1,4,2]  OBJ       6.353843      CON8      0.827892    
    y[1,4,2]  CON23     1.000000    
    y[1,4,3]  OBJ       7.478578      CON9      1.193823    
    y[1,4,3]  CON24     1.000000    
    y[2,1,1]  OBJ       8.902776      CON10     1.082589    
    y[2,1,1]  CON13     1.000000    
    y[2,1,2]  OBJ       6.165867      CON11     1.216783    
    y[2,1,2]  CON14     1.000000    
    y[2,1,3]  OBJ       9.470707      CON12     1.145659    
    y[2,1,3]  CON15     1.000000    
    y[2,2,1]  OBJ       6.646870      CON10     1.154260    
    y[2,2,1]  CON16     1.000000    
    y[2,2,2]  OBJ       7.143435      CON11     0.548806    
    y[2,2,2]  CON17     1.000000    
    y[2,2,3]  OBJ       6.321258      CON12     0.812831    
    y[2,2,3]  CON18     1.000000    
    y[2,3,1]  OBJ       5.238552      CON10     1.330040    
    y[2,3,1]  CON19     1.000000    
    y[2,3,2]  OBJ       5.416226      CON11     1.126191    
    y[2,3,2]  CON20     1.000000    
    y[2,3,3]  OBJ       8.580186      CON12     0.794518    
    y[2,3,3]  CON21     1.000000    
    y[2,4,1]  OBJ       9.778110      CON10     0.597158    
    y[2,4,1]  CON22     1.000000    
    y[2,4,2]  OBJ       9.613925      CON11     0.827892    
    y[2,4,2]  CON23     1.000000    
    y[2,4,3]  OBJ       6.756384      CON12     1.193823    
    y[2,4,3]  CON24     1.000000    
    z[1,1]    OBJ       935.878450    CON13     1.000000    
    z[1,2]    OBJ       666.516785    CON14     1.000000    
    z[1,3]    OBJ       905.835689    CON15     1.000000    
    z[2,1]    OBJ       841.310683    CON16     1.000000    
    z[2,2]    OBJ       921.525323    CON17     1.000000    
    z[2,3]    OBJ       623.079038    CON18     1.000000    
    z[3,1]    OBJ       566.258784    CON19     1.000000    
    z[3,2]    OBJ       537.393326    CON20     1.000000    
    z[3,3]    OBJ       787.670423    CON21     1.000000    
    z[4,1]    OBJ       991.822600    CON22     1.000000    
    z[4,2]    OBJ       527.668873    CON23     1.000000    
    z[4,3]    OBJ       713.703839    CON24     1.000000    
    MARKER    'MARKER'                 'INTEND'
RHS
    RHS       CON1      -0.000000     CON2      -0.000000   
    RHS       CON3      -0.000000     CON4      -0.000000   
    RHS       CON5      -0.000000     CON6      -0.000000   
    RHS       CON7      -0.000000     CON8      -0.000000   
    RHS       CON9      -0.000000     CON10     -0.000000   
    RHS       CON11     -0.000000     CON12     -0.000000   
    RHS       CON13     1.000000      CON14     1.000000    
    RHS       CON15     1.000000      CON16     1.000000    
    RHS       CON17     1.000000      CON18     1.000000    
    RHS       CON19     1.000000      CON20     1.000000    
    RHS       CON21     1.000000      CON22     1.000000    
    RHS       CON23     1.000000      CON24     1.000000    
BOUNDS
 BV BOUND     u[1,1]  
 BV BOUND     u[1,2]  
 BV BOUND     u[1,3]  
 BV BOUND     u[2,1]  
 BV BOUND     u[2,2]  
 BV BOUND     u[2,3]  
 BV BOUND     y[1,1,1]
 BV BOUND     y[1,1,2]
 BV BOUND     y[1,1,3]
 BV BOUND     y[1,2,1]
 BV BOUND     y[1,2,2]
 BV BOUND     y[1,2,3]
 BV BOUND     y[1,3,1]
 BV BOUND     y[1,3,2]
 BV BOUND     y[1,3,3]
 BV BOUND     y[1,4,1]
 BV BOUND     y[1,4,2]
 BV BOUND     y[1,4,3]
 BV BOUND     y[2,1,1]
 BV BOUND     y[2,1,2]
 BV BOUND     y[2,1,3]
 BV BOUND     y[2,2,1]
 BV BOUND     y[2,2,2]
 BV BOUND     y[2,2,3]
 BV BOUND     y[2,3,1]
 BV BOUND     y[2,3,2]
 BV BOUND     y[2,3,3]
 BV BOUND     y[2,4,1]
 BV BOUND     y[2,4,2]
 BV BOUND     y[2,4,3]
 BV BOUND     z[1,1]  
 BV BOUND     z[1,2]  
 BV BOUND     z[1,3]  
 BV BOUND     z[2,1]  
 BV BOUND     z[2,2]  
 BV BOUND     z[2,3]  
 BV BOUND     z[3,1]  
 BV BOUND     z[3,2]  
 BV BOUND     z[3,3]  
 BV BOUND     z[4,1]  
 BV BOUND     z[4,2]  
 BV BOUND     z[4,3]  
ENDATA
